# Objective value = 2722.33
I_0_0 781
I_0_1 8.9499999999999989e+02
I_0_2 1165
I_0_3 1035
I_0_4 924
I_0_5 9.0799999999999989e+02
I_0_6 1178
I_1_0 100
I_1_1 9.9999999999999943e+01
I_1_2 50
I_1_3 0
I_1_4 100
I_1_5 50
I_1_6 0
I_2_0 29
I_2_1 29
I_2_2 0
I_2_3 29
I_2_4 0
I_2_5 29
I_2_6 0
I_3_0 154
I_3_1 154
I_3_2 77
I_3_3 0
I_3_4 154
I_3_5 77
I_3_6 8.8817841970012523e-16
I_4_0 62
I_4_1 31
I_4_2 0
I_4_3 62
I_4_4 31
I_4_5 6.2000000000000107e+01
I_4_6 3.0999999999999982e+01
I_5_0 166
I_5_1 83
I_5_2 0
I_5_3 166
I_5_4 83
I_5_5 166
I_5_6 83
q_1_0 4.9999999999999950e+01
q_1_1 4.9737991503207013e-14
q_1_2 0
q_1_3 150
q_1_4 0
q_1_5 0
q_2_0 29
q_2_1 0
q_2_2 58
q_2_3 0
q_2_4 58
q_2_5 0
q_3_0 77
q_3_1 0
q_3_2 0
q_3_3 231
q_3_4 0
q_3_5 7.1054273576010019e-15
q_4_0 0
q_4_1 0
q_4_2 93
q_4_3 0
q_4_4 6.2000000000000107e+01
q_4_5 0
q_5_0 0
q_5_1 0
q_5_2 249
q_5_3 0
q_5_4 166
q_5_5 0
y_0_0 1
y_0_1 1.6653345369377348e-16
y_0_2 1
y_0_3 1
y_0_4 1
y_0_5 0
y_1_0 0.999999999999999
y_1_1 4.9960036108132044e-16
y_1_2 0
y_1_3 1
y_1_4 0
y_1_5 0
y_2_0 1
y_2_1 0
y_2_2 1
y_2_3 0
y_2_4 1
y_2_5 0
y_3_0 1
y_3_1 -2.2204460492503131e-16
y_3_2 0
y_3_3 1.0000000000000002e+00
y_3_4 0
y_3_5 1.3877787807814457e-17
y_4_0 0
y_4_1 0
y_4_2 1
y_4_3 0
y_4_4 1
y_4_5 0
y_5_0 0
y_5_1 0
y_5_2 1
y_5_3 0
y_5_4 1
y_5_5 0
x_0_1_0 9.9999999999999878e-01
x_0_1_1 3.8857805861880479e-16
x_0_1_2 0
x_0_1_3 9.9999999999999978e-01
x_0_1_4 0
x_0_1_5 0
x_0_2_0 9.9999999999999967e-01
x_0_2_1 4.4408920985006262e-16
x_0_2_2 1
x_0_2_3 0
x_0_2_4 1
x_0_2_5 0
x_0_3_0 9.9920072216264089e-16
x_0_3_1 -1.0547118733938987e-15
x_0_3_2 0
x_0_3_3 1.0000000000000002e+00
x_0_3_4 0
x_0_3_5 0
x_0_4_0 0
x_0_4_1 0
x_0_4_2 1
x_0_4_3 0
x_0_4_4 1
x_0_4_5 0
x_0_5_0 0
x_0_5_1 0
x_0_5_2 0
x_0_5_3 0
x_0_5_4 0
x_0_5_5 0
x_1_2_0 0
x_1_2_1 0
x_1_2_2 0
x_1_2_3 0
x_1_2_4 0
x_1_2_5 0
x_1_3_0 9.9999999999999922e-01
x_1_3_1 6.6613381477509392e-16
x_1_3_2 0
x_1_3_3 1.0000000000000002e+00
x_1_3_4 0
x_1_3_5 2.7755575615628914e-17
x_1_4_0 0
x_1_4_1 0
x_1_4_2 0
x_1_4_3 0
x_1_4_4 0
x_1_4_5 0
x_1_5_0 0
x_1_5_1 0
x_1_5_2 0
x_1_5_3 0
x_1_5_4 0
x_1_5_5 0
x_2_3_0 1
x_2_3_1 -4.4408920985006262e-16
x_2_3_2 0
x_2_3_3 0
x_2_3_4 0
x_2_3_5 0
x_2_4_0 0
x_2_4_1 0
x_2_4_2 0
x_2_4_3 0
x_2_4_4 0
x_2_4_5 0
x_2_5_0 0
x_2_5_1 0
x_2_5_2 1
x_2_5_3 0
x_2_5_4 1
x_2_5_5 0
x_3_4_0 0
x_3_4_1 0
x_3_4_2 0
x_3_4_3 0
x_3_4_4 0
x_3_4_5 0
x_3_5_0 0
x_3_5_1 0
x_3_5_2 0
x_3_5_3 0
x_3_5_4 0
x_3_5_5 0
x_4_5_0 0
x_4_5_1 0
x_4_5_2 1
x_4_5_3 0
x_4_5_4 1
x_4_5_5 0
